
Gurobi 10.0.3 (linux64, gurobi_cl) logging started Thu Nov  2 11:38:47 2023

Set parameter Username
Set parameter TimeLimit to value 3600
Set parameter LogFile to value "RCPSP_819.log"
Set parameter Threads to value 32
Academic license - for non-commercial use only - expires 2024-10-30
Using license file /home/jrivera6/gurobi-licenses/v1003/compute-0-39/gurobi.lic

Gurobi Optimizer version 10.0.3 build v10.0.3rc0 (linux64)
Copyright (c) 2023, Gurobi Optimization, LLC

Read MPS format model from file RCPSP_819.mps
Reading time = 0.02 seconds
RCPSP_819: 19662 rows, 7750 columns, 60956 nonzeros

CPU model: Intel(R) Xeon(R) Gold 6242 CPU @ 2.80GHz, instruction set [SSE2|AVX|AVX2|AVX512]
Thread count: 32 physical cores, 32 logical processors, using up to 32 threads

Optimize a model with 19662 rows, 7750 columns and 60956 nonzeros
Model fingerprint: 0xb3ecef30
Variable types: 62 continuous, 7688 integer (7688 binary)
Coefficient statistics:
  Matrix range     [1e+00, 3e+02]
  Objective range  [1e+00, 1e+00]
  Bounds range     [1e+00, 1e+00]
  RHS range        [1e+00, 3e+02]
Presolve removed 8374 rows and 3120 columns
Presolve time: 3.37s
Presolved: 11288 rows, 4630 columns, 35837 nonzeros
Variable types: 61 continuous, 4569 integer (4569 binary)

Root relaxation: objective 7.700000e+01, 1410 iterations, 0.02 seconds (0.01 work units)

    Nodes    |    Current Node    |     Objective Bounds      |     Work
 Expl Unexpl |  Obj  Depth IntInf | Incumbent    BestBd   Gap | It/Node Time

H    0     0                      77.0000000   77.00000  0.00%     -    3s
     0     0   77.00000    0    2   77.00000   77.00000  0.00%     -    3s

Explored 1 nodes (3385 simplex iterations) in 3.67 seconds (2.66 work units)
Thread count was 32 (of 32 available processors)

Solution count 1: 77 

Optimal solution found (tolerance 1.00e-04)
Best objective 7.700000000000e+01, best bound 7.700000000000e+01, gap 0.0000%

Wrote result file 'RCPSP_819.sol'

